letting n_nurses=25
letting n_days=7
letting n_shift_types=4
letting max_covers=14
letting t_covers=87
letting covers=[4,14,3,0,11,0,8,0,8,0,11,0,0,0,0,0,11,8,0,0,0,0,0,0,6,1,2,0]
letting prefes=[1,4,1,1,2,2,4,4,1,4,1,1,2,2,4,4,1,4,1,1,1,4,1,1,2,2,4,4,1,4,2,1,4,2,4,4,1,4,2,1,4,2,4,4,1,4,2,1,1,4,2,1,4,2,4,4,1,4,2,1,2,1,4,4,1,4,2,1,2,1,4,4,1,4,2,1,1,4,2,1,2,1,4,4,2,1,2,2,2,2,1,4,2,1,2,2,2,2,1,4,2,1,2,2,2,1,2,2,2,2,1,4,1,4,1,1,2,2,4,4,1,4,1,1,2,2,4,4,1,4,1,1,1,4,1,1,2,2,4,4,2,4,2,2,4,2,4,4,2,4,2,2,4,2,4,4,2,4,2,2,2,4,2,2,4,2,4,4,1,1,2,1,4,2,1,4,1,1,2,1,4,2,1,4,1,1,2,1,1,1,2,1,4,2,1,4,1,4,2,1,4,2,4,4,1,4,2,1,4,2,4,4,1,4,2,1,1,4,2,1,4,2,4,4,1,4,2,1,2,2,4,4,1,4,2,1,2,2,4,4,1,4,2,1,1,4,2,1,2,2,4,4,1,4,1,1,2,2,4,4,1,4,1,1,2,2,4,4,1,4,1,1,1,4,1,1,2,2,4,4,1,4,1,1,2,2,4,4,1,4,1,1,2,2,4,4,1,4,1,1,1,4,1,1,2,2,4,4,1,1,2,1,2,2,1,1,1,1,2,1,2,2,1,1,1,1,2,1,1,1,2,1,2,2,1,1,1,4,2,1,2,2,4,4,1,4,2,1,2,2,4,4,1,4,2,1,1,4,2,1,2,2,4,4,1,4,2,1,4,2,4,4,1,4,2,1,4,2,4,4,1,4,2,1,1,4,2,1,4,2,4,4,2,1,2,2,2,2,1,4,2,1,2,2,2,2,1,4,2,1,2,2,2,1,2,2,2,2,1,4,2,4,2,2,2,2,4,1,2,4,2,2,2,2,4,1,2,4,2,2,2,4,2,2,2,2,4,1,1,4,2,1,2,2,4,4,1,4,2,1,2,2,4,4,1,4,2,1,1,4,2,1,2,2,4,4,1,4,2,1,2,1,4,4,1,4,2,1,2,1,4,4,1,4,2,1,1,4,2,1,2,1,4,4,1,4,2,1,2,1,4,4,1,4,2,1,2,1,4,4,1,4,2,1,1,4,2,1,2,1,4,4,1,4,2,1,2,2,4,4,1,4,2,1,2,2,4,4,1,4,2,1,1,4,2,1,2,2,4,4,2,4,2,2,2,2,4,1,2,4,2,2,2,2,4,1,2,4,2,2,2,4,2,2,2,2,4,1,1,4,2,1,2,1,4,4,1,4,2,1,2,1,4,4,1,4,2,1,1,4,2,1,2,1,4,4,1,4,1,1,2,2,4,1,1,4,1,1,2,2,4,1,1,4,1,1,1,4,1,1,2,2,4,1,1,4,2,1,2,2,4,1,1,4,2,1,2,2,4,1,1,4,2,1,1,4,2,1,2,2,4,1,1,1,2,1,2,1,1,4,1,1,2,1,2,1,1,4,1,1,2,1,1,1,2,1,2,1,1,4]
letting ub =  299
